set vertices := v1 v2 v3 v4 v5;

param value:  v1  v2  v3  v4  v5 :=
        v1     0   3    7   2   8
        v2     0   0    2   9   8
        v3     0   0    0   7   1
        v4     0   0    0   0   2
        v5     0   0    0   0   0  ;
